min: 71 x1_1 + 21 x1_2 + 76 x1_3 + 53 x1_4 + 9 x1_5 + 1 x1_6 + 96 x2_1 + 57 x2_2 + 50 x2_3 + 4 x2_4 + 87 x2_5 + 11 x2_6 + 3 x3_1 + 55 x3_2 + 63 x3_3 + 46 x3_4 + 54 x3_5 + 25 x3_6 + 25 x4_1 + 42 x4_2 + 31 x4_3 + 41 x4_4 + 81 x4_5 + 7 x4_6 + 27 x5_1 + 73 x5_2 + 60 x5_3 + 91 x5_4 + 98 x5_5 + 49 x5_6 + 67 x6_1 + 29 x6_2 + 94 x6_3 + 62 x6_4 + 80 x6_5 + 22 x6_6;

st
x1_1 + x1_2 + x1_3 + x1_4 + x1_5 + x1_6 = 305;
x2_1 + x2_2 + x2_3 + x2_4 + x2_5 + x2_6 = 4975;
x3_1 + x3_2 + x3_3 + x3_4 + x3_5 + x3_6 = 353;
x4_1 + x4_2 + x4_3 + x4_4 + x4_5 + x4_6 = 642;
x5_1 + x5_2 + x5_3 + x5_4 + x5_5 + x5_6 = 3384;
x6_1 + x6_2 + x6_3 + x6_4 + x6_5 + x6_6 = 4737;

x1_1 + x2_1 + x3_1 + x4_1 + x5_1 + x6_1 >= 513;
x1_2 + x2_2 + x3_2 + x4_2 + x5_2 + x6_2 >= 4496;
x1_3 + x2_3 + x3_3 + x4_3 + x5_3 + x6_3 >= 1226;
x1_4 + x2_4 + x3_4 + x4_4 + x5_4 + x6_4 >= 4981;
x1_5 + x2_5 + x3_5 + x4_5 + x5_5 + x6_5 >= 3756;
x1_6 + x2_6 + x3_6 + x4_6 + x5_6 + x6_6 >= 194;

x1_1 >= 0;
x1_2 >= 0;
x1_3 >= 0;
x1_4 >= 0;
x1_5 >= 0;
x1_6 >= 0;
x2_1 >= 0;
x2_2 >= 0;
x2_3 >= 0;
x2_4 >= 0;
x2_5 >= 0;
x2_6 >= 0;
x3_1 >= 0;
x3_2 >= 0;
x3_3 >= 0;
x3_4 >= 0;
x3_5 >= 0;
x3_6 >= 0;
x4_1 >= 0;
x4_2 >= 0;
x4_3 >= 0;
x4_4 >= 0;
x4_5 >= 0;
x4_6 >= 0;
x5_1 >= 0;
x5_2 >= 0;
x5_3 >= 0;
x5_4 >= 0;
x5_5 >= 0;
x5_6 >= 0;
x6_1 >= 0;
x6_2 >= 0;
x6_3 >= 0;
x6_4 >= 0;
x6_5 >= 0;
x6_6 >= 0;